7318
8115
4983
9162
6890
5492
4222
10186
7165
8677
5402
4011
5119
6110
9850
6016
6775
6628
6966
6150
4123
6090
6498
7045
7920
1915
1687
9667
1380
1988
8531
4689
5050
6066
7942
5140
2145
5776
3918
7161
3241
1893
4137
9423
5957
9408
6759
10011
8463
8521
